************************************************************************
file with basedata            : mm26_.bas
initial value random generator: 7051
************************************************************************
projects                      :  1
jobs (incl. supersource/sink ):  12
horizon                       :  82
RESOURCES
  - renewable                 :  2   R
  - nonrenewable              :  2   N
  - doubly constrained        :  0   D
************************************************************************
PROJECT INFORMATION:
pronr.  #jobs rel.date duedate tardcost  MPM-Time
    1     10      0       14        7       14
************************************************************************
PRECEDENCE RELATIONS:
jobnr.    #modes  #successors   successors
   0        1          3           1   2   3
   1        3          1           5
   2        3          1          10
   3        3          3           4   6   7
   4        3          2           9  10
   5        3          2           7   8
   6        3          2           8   9
   7        3          1           9
   8        3          1          11
   9        3          1          11
  10        3          1          11
  11        1          0        
************************************************************************
REQUESTS/DURATIONS:
jobnr. mode duration  R 1  R 2  R 3  R 4  E(W 1)
------------------------------------------------------------------------
  0      1     0       0    0    0    0     0
  1      1     6       0    5    7    0    72
  2      1     2       9    0    0    5    28
  3      1     3       0    7    8    0    45
  4      1     4       0    2    7    0    36
  5      1     4       0    7    2    0    36
  6      1     1       0    4    0    9    13
  7      1     3       0    6    0    8    42
  8      1     4       9    0    0    8    68
  9      1     1       0    6    0    6    12
 10      1     6       0    2    7    0    54
 11      1     0       0    0    0    0     0
************************************************************************
RESOURCEAVAILABILITIES:
  R 1
   108
************************************************************************
RESOURCE LIMITS:
jobnr.  l(R 1)  u(R 1)
------------------------------------------------------------------------
  0        0       0
  1        7      12
  2        8      14
  3        8      15
  4        5       9
  5        5       9
  6        7      13
  7        7      14
  8        9      17
  9        6      12
 10        5       9
 11        0       0
************************************************************************
SCENARIOS:
------------------------------------------------------------------------
RESOURCE k = 1
s = 1: (0, 46, 33, 32, 54, 51, 21, 50, 88, 13, 35, 0)
s = 2: (0, 88, 31, 46, 46, 37, 13, 48, 43, 12, 63, 0)
s = 3: (0, 48, 29, 47, 32, 51, 8, 35, 62, 8, 67, 0)
s = 4: (0, 67, 17, 28, 26, 42, 17, 23, 66, 11, 57, 0)
s = 5: (0, 57, 31, 50, 46, 23, 22, 75, 57, 12, 48, 0)
s = 6: (0, 72, 22, 46, 39, 39, 16, 28, 36, 13, 58, 0)
s = 7: (0, 93, 21, 33, 30, 36, 15, 49, 54, 10, 45, 0)
s = 8: (0, 53, 17, 50, 50, 34, 10, 52, 83, 11, 36, 0)
s = 9: (0, 68, 20, 36, 35, 23, 10, 40, 41, 8, 40, 0)
s = 10: (0, 77, 32, 54, 24, 53, 14, 55, 46, 11, 38, 0)
s = 11: (0, 110, 26, 48, 39, 36, 21, 47, 67, 10, 60, 0)
s = 12: (0, 75, 22, 45, 34, 42, 11, 30, 91, 8, 69, 0)
s = 13: (0, 89, 17, 37, 58, 25, 15, 30, 66, 10, 51, 0)
s = 14: (0, 44, 22, 56, 37, 44, 18, 45, 72, 11, 33, 0)
s = 15: (0, 126, 44, 37, 42, 25, 10, 33, 81, 9, 55, 0)
s = 16: (0, 83, 31, 38, 35, 25, 11, 49, 63, 11, 63, 0)
s = 17: (0, 91, 20, 47, 31, 27, 10, 43, 55, 13, 62, 0)
s = 18: (0, 87, 20, 48, 43, 43, 12, 43, 52, 12, 69, 0)
s = 19: (0, 95, 31, 45, 31, 37, 22, 35, 69, 17, 69, 0)
s = 20: (0, 82, 16, 31, 31, 38, 15, 49, 62, 12, 45, 0)
s = 21: (0, 85, 19, 62, 47, 31, 12, 29, 60, 10, 74, 0)
s = 22: (0, 64, 17, 51, 36, 34, 18, 29, 96, 15, 53, 0)
s = 23: (0, 62, 20, 36, 35, 26, 20, 32, 81, 11, 52, 0)
s = 24: (0, 54, 23, 70, 53, 22, 13, 34, 85, 13, 49, 0)
s = 25: (0, 51, 23, 54, 28, 36, 11, 29, 79, 15, 69, 0)
s = 26: (0, 81, 36, 30, 33, 27, 18, 70, 63, 10, 38, 0)
s = 27: (0, 64, 21, 73, 21, 49, 8, 35, 43, 12, 39, 0)
s = 28: (0, 70, 15, 42, 37, 45, 19, 33, 35, 18, 58, 0)
s = 29: (0, 64, 23, 38, 46, 33, 9, 47, 71, 9, 77, 0)
s = 30: (0, 75, 23, 28, 27, 47, 9, 52, 43, 9, 60, 0)
s = 31: (0, 110, 26, 25, 45, 52, 18, 25, 64, 10, 43, 0)
s = 32: (0, 53, 18, 49, 27, 22, 12, 28, 93, 10, 77, 0)
s = 33: (0, 58, 21, 42, 45, 50, 12, 45, 90, 11, 52, 0)
s = 34: (0, 52, 32, 28, 36, 36, 20, 26, 98, 17, 42, 0)
s = 35: (0, 48, 31, 43, 36, 24, 14, 48, 66, 10, 67, 0)
s = 36: (0, 77, 17, 81, 26, 34, 18, 43, 52, 14, 73, 0)
s = 37: (0, 66, 22, 55, 29, 50, 10, 39, 83, 11, 52, 0)
s = 38: (0, 57, 27, 40, 38, 39, 11, 39, 70, 13, 69, 0)
s = 39: (0, 60, 35, 40, 29, 28, 18, 45, 97, 16, 40, 0)
s = 40: (0, 73, 33, 62, 29, 48, 14, 48, 81, 10, 52, 0)
s = 41: (0, 96, 41, 41, 25, 26, 12, 48, 61, 12, 71, 0)
s = 42: (0, 50, 23, 73, 46, 32, 15, 66, 52, 20, 59, 0)
s = 43: (0, 83, 29, 49, 29, 34, 14, 37, 60, 8, 55, 0)
s = 44: (0, 55, 18, 27, 49, 42, 12, 37, 57, 12, 54, 0)
s = 45: (0, 59, 34, 28, 46, 26, 12, 46, 106, 12, 41, 0)
s = 46: (0, 72, 27, 43, 48, 39, 7, 71, 78, 12, 40, 0)
s = 47: (0, 48, 40, 59, 33, 44, 14, 50, 62, 8, 38, 0)
s = 48: (0, 70, 32, 36, 30, 48, 11, 39, 50, 14, 45, 0)
s = 49: (0, 56, 25, 45, 46, 25, 20, 34, 58, 14, 54, 0)
s = 50: (0, 71, 29, 38, 42, 47, 10, 23, 67, 13, 30, 0)
s = 51: (0, 53, 18, 43, 42, 46, 15, 28, 46, 11, 37, 0)
s = 52: (0, 120, 24, 29, 39, 34, 9, 39, 54, 9, 61, 0)
s = 53: (0, 94, 26, 37, 26, 28, 16, 33, 72, 9, 73, 0)
s = 54: (0, 91, 24, 63, 39, 23, 9, 29, 61, 10, 45, 0)
s = 55: (0, 58, 24, 57, 39, 50, 20, 38, 56, 8, 55, 0)
s = 56: (0, 64, 25, 35, 40, 27, 23, 58, 61, 11, 51, 0)
s = 57: (0, 97, 28, 42, 39, 22, 12, 38, 84, 10, 81, 0)
s = 58: (0, 52, 26, 43, 46, 30, 20, 39, 71, 8, 50, 0)
s = 59: (0, 102, 23, 44, 29, 28, 10, 40, 71, 11, 54, 0)
s = 60: (0, 100, 20, 42, 30, 28, 16, 35, 50, 17, 34, 0)
s = 61: (0, 41, 18, 28, 61, 19, 12, 38, 79, 13, 54, 0)
s = 62: (0, 94, 31, 57, 48, 38, 11, 53, 42, 13, 63, 0)
s = 63: (0, 89, 41, 34, 19, 35, 12, 59, 56, 9, 28, 0)
s = 64: (0, 78, 25, 33, 39, 29, 9, 55, 79, 17, 36, 0)
s = 65: (0, 75, 37, 30, 36, 27, 9, 39, 82, 13, 54, 0)
s = 66: (0, 89, 28, 50, 38, 62, 8, 53, 64, 14, 94, 0)
s = 67: (0, 64, 25, 36, 23, 22, 15, 47, 86, 11, 70, 0)
s = 68: (0, 73, 33, 38, 30, 50, 13, 55, 81, 17, 53, 0)
s = 69: (0, 78, 45, 58, 19, 33, 10, 34, 86, 10, 79, 0)
s = 70: (0, 72, 23, 46, 27, 33, 14, 29, 102, 15, 50, 0)
s = 71: (0, 81, 24, 65, 50, 32, 15, 30, 62, 7, 60, 0)
s = 72: (0, 64, 19, 36, 51, 58, 15, 55, 93, 11, 39, 0)
s = 73: (0, 68, 33, 37, 34, 39, 18, 55, 120, 16, 43, 0)
s = 74: (0, 59, 26, 53, 53, 53, 15, 38, 67, 12, 49, 0)
s = 75: (0, 74, 27, 41, 20, 40, 15, 25, 58, 10, 57, 0)
s = 76: (0, 69, 21, 68, 25, 37, 11, 36, 49, 11, 71, 0)
s = 77: (0, 62, 18, 41, 24, 24, 19, 55, 95, 11, 32, 0)
s = 78: (0, 84, 42, 63, 39, 31, 13, 23, 60, 14, 68, 0)
s = 79: (0, 70, 32, 58, 42, 28, 16, 47, 57, 13, 62, 0)
s = 80: (0, 68, 29, 33, 35, 46, 14, 27, 75, 17, 74, 0)
s = 81: (0, 49, 29, 26, 26, 30, 21, 43, 39, 8, 38, 0)
s = 82: (0, 67, 21, 69, 36, 23, 19, 42, 95, 15, 56, 0)
s = 83: (0, 123, 17, 50, 37, 42, 16, 27, 60, 10, 40, 0)
s = 84: (0, 49, 20, 61, 38, 28, 21, 57, 74, 11, 39, 0)
s = 85: (0, 125, 20, 29, 32, 62, 10, 45, 70, 18, 43, 0)
s = 86: (0, 60, 36, 41, 30, 34, 10, 31, 81, 12, 56, 0)
s = 87: (0, 39, 29, 58, 48, 39, 11, 53, 60, 13, 74, 0)
s = 88: (0, 51, 26, 61, 35, 39, 20, 31, 88, 18, 67, 0)
s = 89: (0, 105, 24, 42, 36, 66, 16, 39, 115, 11, 40, 0)
s = 90: (0, 48, 27, 54, 49, 35, 16, 64, 61, 16, 55, 0)
s = 91: (0, 127, 45, 29, 36, 33, 9, 67, 64, 9, 34, 0)
s = 92: (0, 51, 24, 32, 27, 24, 12, 54, 56, 12, 61, 0)
s = 93: (0, 52, 36, 33, 36, 35, 14, 68, 77, 13, 44, 0)
s = 94: (0, 107, 26, 52, 30, 34, 11, 51, 85, 13, 81, 0)
s = 95: (0, 93, 17, 63, 27, 38, 9, 37, 64, 13, 37, 0)
s = 96: (0, 98, 22, 30, 68, 28, 12, 64, 110, 7, 46, 0)
s = 97: (0, 101, 33, 38, 43, 53, 16, 48, 63, 11, 72, 0)
s = 98: (0, 98, 30, 28, 23, 34, 12, 24, 114, 18, 69, 0)
s = 99: (0, 46, 39, 39, 30, 55, 11, 27, 59, 10, 52, 0)
s = 100: (0, 69, 23, 39, 21, 36, 11, 36, 59, 11, 48, 0)
s = 101: (0, 63, 32, 34, 32, 36, 12, 49, 59, 10, 61, 0)
s = 102: (0, 71, 38, 27, 43, 31, 19, 57, 76, 11, 32, 0)
s = 103: (0, 109, 25, 38, 26, 38, 22, 59, 80, 21, 51, 0)
s = 104: (0, 62, 37, 31, 44, 30, 11, 48, 93, 8, 42, 0)
s = 105: (0, 68, 17, 36, 30, 26, 17, 41, 59, 8, 65, 0)
s = 106: (0, 55, 25, 27, 40, 50, 11, 44, 50, 23, 91, 0)
s = 107: (0, 81, 30, 69, 42, 45, 20, 54, 79, 11, 35, 0)
s = 108: (0, 71, 28, 52, 28, 37, 11, 24, 86, 14, 46, 0)
s = 109: (0, 84, 34, 47, 41, 26, 11, 34, 67, 13, 36, 0)
s = 110: (0, 52, 44, 48, 24, 38, 14, 50, 48, 12, 61, 0)
s = 111: (0, 80, 36, 33, 42, 52, 23, 27, 54, 10, 33, 0)
s = 112: (0, 73, 39, 40, 55, 30, 10, 48, 57, 10, 47, 0)
s = 113: (0, 74, 31, 30, 41, 32, 13, 58, 48, 11, 51, 0)
s = 114: (0, 61, 27, 64, 35, 40, 11, 45, 35, 21, 83, 0)
s = 115: (0, 53, 20, 58, 22, 33, 16, 39, 111, 19, 79, 0)
s = 116: (0, 102, 28, 37, 43, 52, 15, 56, 45, 21, 33, 0)
s = 117: (0, 60, 28, 37, 39, 28, 17, 61, 61, 13, 43, 0)
s = 118: (0, 54, 21, 42, 38, 33, 14, 27, 52, 11, 44, 0)
s = 119: (0, 66, 22, 68, 31, 25, 10, 41, 66, 12, 48, 0)
s = 120: (0, 107, 31, 36, 41, 53, 14, 28, 89, 14, 49, 0)
s = 121: (0, 56, 30, 45, 26, 44, 15, 32, 105, 15, 48, 0)
s = 122: (0, 113, 26, 63, 44, 30, 12, 47, 88, 16, 39, 0)
s = 123: (0, 59, 22, 47, 41, 27, 12, 42, 43, 11, 36, 0)
s = 124: (0, 65, 30, 76, 44, 55, 12, 41, 67, 9, 33, 0)
s = 125: (0, 81, 27, 45, 29, 24, 12, 50, 43, 18, 58, 0)
s = 126: (0, 70, 25, 45, 36, 25, 8, 52, 61, 11, 57, 0)
s = 127: (0, 120, 28, 63, 37, 36, 13, 49, 89, 11, 93, 0)
s = 128: (0, 128, 21, 32, 54, 38, 20, 28, 66, 18, 50, 0)
s = 129: (0, 56, 27, 45, 23, 55, 15, 80, 89, 10, 49, 0)
s = 130: (0, 52, 30, 54, 63, 32, 11, 26, 70, 8, 33, 0)
s = 131: (0, 42, 20, 49, 40, 25, 8, 32, 117, 13, 43, 0)
s = 132: (0, 48, 32, 36, 24, 25, 17, 37, 103, 15, 48, 0)
s = 133: (0, 98, 18, 56, 35, 45, 13, 47, 79, 15, 62, 0)
s = 134: (0, 49, 27, 66, 41, 41, 15, 37, 40, 17, 38, 0)
s = 135: (0, 67, 31, 32, 25, 25, 16, 37, 80, 12, 45, 0)
s = 136: (0, 86, 35, 31, 46, 47, 11, 37, 79, 22, 72, 0)
s = 137: (0, 74, 35, 36, 25, 34, 10, 62, 66, 18, 47, 0)
s = 138: (0, 119, 30, 64, 24, 52, 13, 52, 57, 11, 33, 0)
s = 139: (0, 86, 31, 54, 40, 23, 11, 29, 110, 13, 48, 0)
s = 140: (0, 69, 28, 27, 24, 57, 8, 60, 58, 18, 72, 0)
s = 141: (0, 86, 29, 60, 34, 51, 12, 55, 89, 17, 70, 0)
s = 142: (0, 52, 38, 46, 36, 29, 21, 28, 65, 7, 45, 0)
s = 143: (0, 67, 31, 54, 44, 23, 8, 40, 58, 9, 82, 0)
s = 144: (0, 48, 36, 46, 47, 44, 9, 39, 58, 13, 82, 0)
s = 145: (0, 67, 34, 29, 50, 26, 14, 34, 43, 11, 72, 0)
s = 146: (0, 70, 33, 75, 29, 49, 13, 33, 67, 9, 70, 0)
s = 147: (0, 71, 19, 47, 34, 54, 13, 42, 117, 13, 37, 0)
s = 148: (0, 63, 26, 40, 25, 32, 9, 54, 63, 20, 59, 0)
s = 149: (0, 122, 20, 43, 51, 52, 14, 49, 66, 12, 33, 0)
s = 150: (0, 53, 36, 53, 56, 26, 11, 41, 76, 15, 57, 0)
s = 151: (0, 62, 23, 31, 44, 29, 9, 30, 68, 11, 41, 0)
s = 152: (0, 60, 28, 41, 41, 28, 11, 64, 49, 15, 60, 0)
s = 153: (0, 66, 29, 29, 31, 24, 8, 39, 93, 12, 65, 0)
s = 154: (0, 109, 31, 25, 27, 40, 9, 34, 60, 13, 35, 0)
s = 155: (0, 82, 26, 58, 50, 49, 8, 45, 73, 16, 31, 0)
s = 156: (0, 49, 37, 36, 29, 44, 11, 56, 64, 15, 75, 0)
s = 157: (0, 40, 25, 42, 30, 43, 20, 56, 52, 11, 67, 0)
s = 158: (0, 80, 32, 52, 23, 21, 17, 31, 49, 8, 42, 0)
s = 159: (0, 52, 27, 48, 34, 34, 9, 36, 73, 7, 47, 0)
s = 160: (0, 65, 23, 33, 39, 28, 10, 51, 75, 11, 80, 0)
s = 161: (0, 100, 34, 66, 55, 27, 15, 36, 53, 9, 62, 0)
s = 162: (0, 67, 35, 33, 43, 51, 17, 56, 55, 13, 40, 0)
s = 163: (0, 45, 32, 26, 33, 48, 15, 57, 86, 14, 31, 0)
s = 164: (0, 78, 31, 47, 47, 44, 18, 38, 67, 14, 68, 0)
s = 165: (0, 50, 34, 29, 39, 23, 11, 45, 40, 11, 61, 0)
s = 166: (0, 74, 25, 41, 45, 44, 23, 28, 39, 8, 56, 0)
s = 167: (0, 86, 38, 42, 31, 49, 8, 31, 48, 15, 39, 0)
s = 168: (0, 71, 36, 41, 32, 38, 17, 52, 40, 16, 43, 0)
s = 169: (0, 95, 17, 40, 54, 36, 13, 51, 90, 7, 41, 0)
s = 170: (0, 78, 40, 75, 41, 30, 15, 30, 110, 9, 29, 0)
s = 171: (0, 67, 38, 43, 21, 38, 11, 38, 76, 9, 54, 0)
s = 172: (0, 84, 19, 50, 33, 50, 12, 26, 51, 10, 54, 0)
s = 173: (0, 48, 19, 44, 35, 24, 12, 55, 57, 8, 41, 0)
s = 174: (0, 41, 28, 48, 55, 38, 19, 47, 78, 13, 77, 0)
s = 175: (0, 51, 23, 41, 39, 63, 19, 40, 39, 12, 32, 0)
s = 176: (0, 53, 28, 56, 41, 25, 10, 53, 63, 10, 55, 0)
s = 177: (0, 72, 28, 63, 28, 27, 10, 41, 70, 17, 61, 0)
s = 178: (0, 79, 25, 56, 29, 58, 17, 25, 84, 12, 84, 0)
s = 179: (0, 47, 30, 42, 21, 49, 11, 43, 38, 13, 74, 0)
s = 180: (0, 66, 18, 25, 26, 41, 7, 58, 76, 12, 45, 0)
s = 181: (0, 69, 17, 44, 50, 38, 13, 56, 114, 9, 29, 0)
s = 182: (0, 66, 16, 30, 42, 32, 13, 30, 52, 10, 60, 0)
s = 183: (0, 83, 31, 43, 48, 41, 14, 31, 37, 11, 85, 0)
s = 184: (0, 57, 32, 38, 22, 29, 17, 51, 72, 12, 76, 0)
s = 185: (0, 59, 18, 71, 41, 53, 9, 38, 62, 9, 39, 0)
s = 186: (0, 65, 24, 32, 40, 28, 20, 33, 73, 9, 61, 0)
s = 187: (0, 43, 30, 45, 36, 40, 11, 41, 39, 15, 50, 0)
s = 188: (0, 98, 23, 27, 21, 39, 12, 62, 80, 14, 62, 0)
s = 189: (0, 53, 19, 46, 59, 50, 16, 57, 61, 11, 33, 0)
s = 190: (0, 75, 26, 52, 30, 28, 20, 24, 91, 9, 88, 0)
s = 191: (0, 70, 26, 55, 42, 55, 10, 23, 45, 13, 40, 0)
s = 192: (0, 56, 28, 44, 38, 25, 10, 40, 75, 11, 44, 0)
s = 193: (0, 47, 25, 42, 53, 47, 14, 27, 53, 11, 45, 0)
s = 194: (0, 84, 27, 40, 36, 39, 10, 48, 120, 19, 74, 0)
s = 195: (0, 71, 25, 91, 44, 44, 18, 32, 74, 8, 49, 0)
s = 196: (0, 56, 37, 44, 30, 27, 9, 32, 120, 17, 39, 0)
s = 197: (0, 125, 30, 42, 49, 52, 13, 40, 66, 7, 41, 0)
s = 198: (0, 48, 17, 46, 36, 36, 11, 25, 96, 8, 41, 0)
s = 199: (0, 49, 37, 75, 30, 47, 15, 34, 92, 8, 41, 0)
s = 200: (0, 113, 22, 50, 28, 44, 15, 45, 94, 18, 58, 0)
************************************************************************
ES/LS-VALUES:
jobnr.   ES(i)    LS(i)
------------------------------------------------------------------------
  0        0        0
  1        0       55
  2        0       67
  3        0       56
  4        6       63
  5       10       66
  6        6       72
  7       17       74
  8       17       74
  9       22       80
 10       13       71
 11       24       82
************************************************************************
BIG-M-VALUES:
M1 = 19, M2 = 128
************************************************************************
